
length = 20;
width = 10;

ntypes = 4;
number = [3,3,1,3];
config = [{1},{2},{3},{4}];

nshapes = 4;
shape = [{1,2},{3,4,5},{6,7,8},{9}];

nroff = 9;
rectoff = [| 0,1,2,1
           | 2,0,3,3
           | 0,1,1,2
           | 1,0,4,4
           | 5,0,2,2
           | 2,0,1,1
           | 1,1,3,3
           | 0,4,5,1
           | 0,0,4,4
 |]; 


mist =   array1d(LENGTH,[0 | l in LENGTH ]);
arrow  = array1d(WIDTH,[0 | w in WIDTH]);
price = [ 0 | p in 1..ntypes];
budget = 40;
stage = B;
